(set-logic HORN)
(declare-fun state (Int Int Bool Int (Array Int Int) Int Int (Array Int Int) Bool Int (Array Int Int) (Array Int Int) Int Int Bool Bool Bool Bool Int) Bool)
(assert (forall ((|.x.14| Int) (|main@%.1.i_0_0| Int) (|main@%assume.flag.0_0_0| Bool) (|main@%_7_0_0| Int) (|main@%shadow.mem.2_0_0| (Array Int Int)) (|main@%_3_0_0| Int) (|main@%_6_0_0| Int) (|main@%shadow.mem1.1_0_0| (Array Int Int)) (|main@%_5_0_0| Bool) (|main@%.0.i1_0_0| Int) (|main@%shadow.mem1.0_0_0| (Array Int Int)) (|main@%shadow.mem.0_0_0| (Array Int Int)) (|@nondet_char_0_0| Int) (|@nondet_int_0_0| Int) (|main@_bb2_0| Bool) (|main@_bb_0_0| Bool) (|tuple(main@_bb_0, main@_bb3_0)| Bool) (|tuple(main@_bb4_0, main@_bb6_0)| Bool) (|main@%_10_0| Int) (|.x.20| Int) (|.x.21| Int) (|main@%.0.i1_2| Int) (|.x.15| Int) (|main@%_5_1| Bool) (|.x.16| Int) (|.x.17| Bool) (|.x.18| (Array Int Int)) (|.x.19| (Array Int Int)) (|main@%shadow.mem1.0_2| (Array Int Int)) (|main@%shadow.mem.0_2| (Array Int Int)) (|main@%_3_1| Int) (|main@%_6_1| Int) (|main@%_7_1| Int) (|.xtv.1| Bool) (|.xtv.2| Bool) (|.xtv.3| Bool) (|.xtv.4| Bool) (|.xtv.5| Int)) (=> (= .x.14 0) (state |.x.14| |main@%.1.i_0_0| |main@%assume.flag.0_0_0| |main@%_7_0_0| |main@%shadow.mem.2_0_0| |main@%_3_0_0| |main@%_6_0_0| |main@%shadow.mem1.1_0_0| |main@%_5_0_0| |main@%.0.i1_0_0| |main@%shadow.mem1.0_0_0| |main@%shadow.mem.0_0_0| |@nondet_char_0_0| |@nondet_int_0_0| |main@_bb2_0| |main@_bb_0_0| |tuple(main@_bb_0, main@_bb3_0)| |tuple(main@_bb4_0, main@_bb6_0)| |main@%_10_0|))))
(assert (forall ((|.x.14| Int) (|main@%.1.i_0_0| Int) (|main@%assume.flag.0_0_0| Bool) (|main@%_7_0_0| Int) (|main@%shadow.mem.2_0_0| (Array Int Int)) (|main@%_3_0_0| Int) (|main@%_6_0_0| Int) (|main@%shadow.mem1.1_0_0| (Array Int Int)) (|main@%_5_0_0| Bool) (|main@%.0.i1_0_0| Int) (|main@%shadow.mem1.0_0_0| (Array Int Int)) (|main@%shadow.mem.0_0_0| (Array Int Int)) (|@nondet_char_0_0| Int) (|@nondet_int_0_0| Int) (|main@_bb2_0| Bool) (|main@_bb_0_0| Bool) (|tuple(main@_bb_0, main@_bb3_0)| Bool) (|tuple(main@_bb4_0, main@_bb6_0)| Bool) (|main@%_10_0| Int) (|.x.20| Int) (|.x.21| Int) (|main@%.0.i1_2| Int) (|.x.15| Int) (|main@%_5_1| Bool) (|.x.16| Int) (|.x.17| Bool) (|.x.18| (Array Int Int)) (|.x.19| (Array Int Int)) (|main@%shadow.mem1.0_2| (Array Int Int)) (|main@%shadow.mem.0_2| (Array Int Int)) (|main@%_3_1| Int) (|main@%_6_1| Int) (|main@%_7_1| Int) (|.xtv.1| Bool) (|.xtv.2| Bool) (|.xtv.3| Bool) (|.xtv.4| Bool) (|.xtv.5| Int)) (=> (and (state |.x.14| |main@%.1.i_0_0| |main@%assume.flag.0_0_0| |main@%_7_0_0| |main@%shadow.mem.2_0_0| |main@%_3_0_0| |main@%_6_0_0| |main@%shadow.mem1.1_0_0| |main@%_5_0_0| |main@%.0.i1_0_0| |main@%shadow.mem1.0_0_0| |main@%shadow.mem.0_0_0| |@nondet_char_0_0| |@nondet_int_0_0| |main@_bb2_0| |main@_bb_0_0| |tuple(main@_bb_0, main@_bb3_0)| |tuple(main@_bb4_0, main@_bb6_0)| |main@%_10_0|) (let ((.def_40 (= .x.15 1))) (let ((.def_44 (= main@%.1.i_0_0 .x.16))) (let ((.def_47 (= main@%assume.flag.0_0_0 .x.17))) (let ((.def_50 (= main@%shadow.mem.2_0_0 .x.18))) (let ((.def_53 (= main@%shadow.mem1.1_0_0 .x.19))) (let ((.def_59 (= .x.16 0))) (let ((.def_62 (= .x.15 2))) (let ((.def_64 (= main@%.0.i1_0_0 main@%.0.i1_2))) (let ((.def_67 (= main@%shadow.mem1.0_0_0 main@%shadow.mem1.0_2))) (let ((.def_70 (= main@%shadow.mem.0_0_0 main@%shadow.mem.0_2))) (let ((.def_92 (store main@%shadow.mem1.0_0_0 (+ main@%_6_0_0 main@%.0.i1_0_0) main@%_10_0))) (let ((.def_96 (<= (+ main@%_3_0_0 (* (- 1) main@%.0.i1_0_0)) 1))) (let ((.def_100 (store main@%shadow.mem.0_0_0 (+ main@%_7_0_0 main@%.0.i1_0_0) 20))) (let ((.def_102 (not main@_bb2_0))) (let ((.def_104 (not |tuple(main@_bb_0, main@_bb3_0)|))) (let ((.def_110 (and main@_bb2_0 main@_bb_0_0))) (let ((.def_111 (or .def_102 .def_110))) (let ((.def_113 (or main@_bb_0_0 .def_104))) (let ((.def_116 (= main@%_10_0 10))) (let ((.def_117 (not .def_110))) (let ((.def_118 (or .def_116 .def_117))) (let ((.def_121 (or .def_104 (not .def_116)))) (let ((.def_123 (or main@_bb2_0 |tuple(main@_bb_0, main@_bb3_0)|))) (let ((.def_129 (<= main@%_7_0_0 0))) (let ((.def_131 (or .def_102 (or (not (<= (+ main@%_7_0_0 main@%.0.i1_0_0) 0)) .def_129)))) (let ((.def_135 (<= main@%_6_0_0 0))) (let ((.def_136 (or (not (<= (+ main@%_6_0_0 main@%.0.i1_0_0) 0)) .def_135))) (let ((.def_138 (not .def_135))) (let ((.def_140 (not .def_129))) (let ((.def_141 (or .def_102 .def_140))) (let ((.def_146 (= .x.14 1))) (let ((.def_148 (= main@%_7_0_0 main@%_7_1))) (let ((.def_150 (= main@%_3_0_0 main@%_3_1))) (let ((.def_152 (= main@%_6_0_0 main@%_6_1))) (let ((.def_154 (= main@%_5_0_0 main@%_5_1))) (let ((.def_191 (not (<= main@%_3_0_0 main@%.1.i_0_0)))) (let ((.def_196 (= (select main@%shadow.mem1.1_0_0 (+ main@%.1.i_0_0 main@%_6_0_0)) 10))) (let ((.def_198 (not |tuple(main@_bb4_0, main@_bb6_0)|))) (let ((.def_202 (= (select main@%shadow.mem.2_0_0 (+ main@%.1.i_0_0 main@%_7_0_0)) 20))) (let ((.def_210 (or .def_129 (not (<= (+ main@%.1.i_0_0 main@%_7_0_0) 0))))) (let ((.def_228 (or .def_135 (not (<= (+ main@%.1.i_0_0 main@%_6_0_0) 0))))) (let ((.def_237 (= .x.14 2))) (and (and (= @nondet_char_0_0 .x.20) (= @nondet_int_0_0 .x.21)) (or (or (or (or (and (or (and (= main@%.0.i1_2 0) (and (and (and (and (and .def_40 main@%_5_1) .def_44) .def_47) .def_50) .def_53)) (and (and (and (and (and (and (not main@%_5_1) (= main@%_5_1 .x.17)) .def_59) .def_62) .def_64) .def_67) .def_70)) (and (= main@%_5_1 (not (<= main@%_3_1 0))) (and (= .x.14 0) (and (not (<= main@%_6_1 0)) (not (<= main@%_7_1 0)))))) (and (and (and (and (and (and (= (+ main@%.0.i1_0_0 (* (- 1) main@%.0.i1_2)) (- 1)) (and (= main@%shadow.mem1.0_2 .def_92) (and (not .def_96) (and (and (and (and (and (or (= main@%shadow.mem.0_2 .def_100) .def_102) (and (or .def_70 .def_104) (and (and (and (and (and (and .def_53 (and .def_50 (and .def_47 (and .def_40 .def_44)))) .def_111) .def_113) .def_118) .def_121) .def_123))) .def_131) .def_136) .def_138) .def_141)))) .def_146) .def_148) .def_150) .def_152) .def_154)) (and (= main@%_5_0_0 .x.17) (and (= .x.19 .def_92) (and (or .def_102 (= .x.18 .def_100)) (and (or .def_104 (= main@%shadow.mem.0_0_0 .x.18)) (and .def_154 (and .def_152 (and .def_150 (and .def_148 (and .def_146 (and .def_96 (and .def_141 (and .def_138 (and .def_136 (and .def_131 (and .def_70 (and .def_67 (and .def_64 (and .def_62 (and .def_59 (and .def_123 (and .def_121 (and .def_118 (and .def_111 .def_113)))))))))))))))))))))))) (and (and (= (+ main@%.1.i_0_0 (* (- 1) .x.16)) (- 1)) (and (= .x.17 (and main@%assume.flag.0_0_0 .def_191)) (and (or (not .def_196) .def_198) (and (or .def_104 .def_202) (and (or |tuple(main@_bb_0, main@_bb3_0)| |tuple(main@_bb4_0, main@_bb6_0)|) (and (or main@_bb_0_0 .def_198) (and (or main@_bb2_0 .def_104) (and (and (or .def_117 .def_196) (and (or .def_102 .def_210) (and .def_154 (and .def_152 (and .def_150 (and .def_148 (and .def_141 (and .def_138 (and .def_70 (and .def_67 (and .def_64 (and .def_62 (and .def_111 (and .def_50 .def_53)))))))))))))) .def_228)))))))) .def_237)) (and (= .x.15 3) (and (not .def_202) (and .def_237 (and .def_191 (and .def_228 (and .def_196 (and .def_210 (and .def_154 (and .def_152 (and .def_150 (and .def_148 (and .def_140 (and .def_138 (and .def_70 (and .def_67 (and .def_64 (and .def_53 (and .def_50 (and .def_47 (and main@%assume.flag.0_0_0 .def_44))))))))))))))))))))))))))))))))))))))))))))))))))))))))))))))))) (state |.x.15| |.x.16| |.x.17| |main@%_7_1| |.x.18| |main@%_3_1| |main@%_6_1| |.x.19| |main@%_5_1| |main@%.0.i1_2| |main@%shadow.mem1.0_2| |main@%shadow.mem.0_2| |.x.20| |.x.21| |.xtv.1| |.xtv.2| |.xtv.3| |.xtv.4| |.xtv.5|))))
(assert (forall ((|.x.14| Int) (|main@%.1.i_0_0| Int) (|main@%assume.flag.0_0_0| Bool) (|main@%_7_0_0| Int) (|main@%shadow.mem.2_0_0| (Array Int Int)) (|main@%_3_0_0| Int) (|main@%_6_0_0| Int) (|main@%shadow.mem1.1_0_0| (Array Int Int)) (|main@%_5_0_0| Bool) (|main@%.0.i1_0_0| Int) (|main@%shadow.mem1.0_0_0| (Array Int Int)) (|main@%shadow.mem.0_0_0| (Array Int Int)) (|@nondet_char_0_0| Int) (|@nondet_int_0_0| Int) (|main@_bb2_0| Bool) (|main@_bb_0_0| Bool) (|tuple(main@_bb_0, main@_bb3_0)| Bool) (|tuple(main@_bb4_0, main@_bb6_0)| Bool) (|main@%_10_0| Int) (|.x.20| Int) (|.x.21| Int) (|main@%.0.i1_2| Int) (|.x.15| Int) (|main@%_5_1| Bool) (|.x.16| Int) (|.x.17| Bool) (|.x.18| (Array Int Int)) (|.x.19| (Array Int Int)) (|main@%shadow.mem1.0_2| (Array Int Int)) (|main@%shadow.mem.0_2| (Array Int Int)) (|main@%_3_1| Int) (|main@%_6_1| Int) (|main@%_7_1| Int) (|.xtv.1| Bool) (|.xtv.2| Bool) (|.xtv.3| Bool) (|.xtv.4| Bool) (|.xtv.5| Int)) (=> (state |.x.14| |main@%.1.i_0_0| |main@%assume.flag.0_0_0| |main@%_7_0_0| |main@%shadow.mem.2_0_0| |main@%_3_0_0| |main@%_6_0_0| |main@%shadow.mem1.1_0_0| |main@%_5_0_0| |main@%.0.i1_0_0| |main@%shadow.mem1.0_0_0| |main@%shadow.mem.0_0_0| |@nondet_char_0_0| |@nondet_int_0_0| |main@_bb2_0| |main@_bb_0_0| |tuple(main@_bb_0, main@_bb3_0)| |tuple(main@_bb4_0, main@_bb6_0)| |main@%_10_0|) (not (= .x.14 3)))))
(check-sat)
